50
100
95
94
92
91
91
91
90
89
89
84
84
82
79
74
74
74
70
69
68
67
63
62
59
59
57
56
56
55
53
52
51
50
50
49
48
48
47
45
43
42
41
41
41
40
38
35
35
32
31
30
